nK = 2817;
nT = 8;
nI = 21;
L = 35;
TT = 747;
np = 1;
nc = 3;
b = [20, 31, 48, 28, 20, 33, 53, 43, 69, 65, 43, 30, 21, 47, 46, 33, 21, 34, 49, 45, 33];
d = [71, 115, 82, 87, 108, 122, 87, 65, 136, 140, 102, 111, 85, 128, 139, 51, 91, 109, 100, 118, 109];
m = [1.4, 1.6, 1.3, 2.2, 1.9, 2, 2.1, 1.7, 1.8, 1, 2.4, 1.9, 1.6, 1.8, 2.5, 2.5, 2.1, 1.1, 2.4, 1.8, 2.1];
pt = [0.28, 0.34, 0.27, 0.27, 0.26, 0.35, 0.29, 0.33];
st = [13.16, 19.04, 11.88, 15.66, 14.56, 17.5, 14.5, 15.84];
arc = {<1, 0, 1, 1, 0, 0, 0, [1, 1, 1, 1, 1, 1, 1, 1]>, <2, 1, 2, 1, 0, 0, 0, [1, 1, 1, 1, 1, 1, 1, 1]>, <3, 2, 3, 1, 0, 0, 0, [1, 1, 1, 1, 1, 1, 1, 1]>, <4, 3, 4, 1, 0, 0, 0, [1, 1, 1, 1, 1, 1, 1, 1]>, <5, 4, 5, 1, 0, 0, 0, [1, 1, 1, 1, 1, 1, 1, 1]>, <6, 5, 6, 1, 0, 0, 0, [1, 1, 1, 1, 1, 1, 1, 1]>, <7, 6, 7, 1, 0, 0, 0, [1, 1, 1, 1, 1, 1, 1, 1]>, <8, 7, 8, 1, 0, 0, 0, [1, 1, 1, 1, 1, 1, 1, 1]>, <9, 8, 9, 1, 0, 0, 0, [1, 1, 1, 1, 1, 1, 1, 1]>, <10, 9, 10, 1, 0, 0, 0, [1, 1, 1, 1, 1, 1, 1, 1]>, <11, 10, 11, 1, 0, 0, 0, [1, 1, 1, 1, 1, 1, 1, 1]>, <12, 11, 12, 1, 0, 0, 0, [1, 1, 1, 1, 1, 1, 1, 1]>, <13, 12, 13, 1, 0, 0, 0, [1, 1, 1, 1, 1, 1, 1, 1]>, <14, 13, 14, 1, 0, 0, 0, [1, 1, 1, 1, 1, 1, 1, 1]>, <15, 14, 15, 1, 0, 0, 0, [1, 1, 1, 1, 1, 1, 1, 1]>, <16, 15, 16, 1, 0, 0, 0, [1, 1, 1, 1, 1, 1, 1, 1]>, <17, 16, 17, 1, 0, 0, 0, [1, 1, 1, 1, 1, 1, 1, 1]>, <18, 17, 18, 1, 0, 0, 0, [1, 1, 1, 1, 1, 1, 1, 1]>, <19, 18, 19, 1, 0, 0, 0, [1, 1, 1, 1, 1, 1, 1, 1]>, <20, 19, 20, 1, 0, 0, 0, [1, 1, 1, 1, 1, 1, 1, 1]>, <21, 20, 21, 1, 0, 0, 0, [1, 1, 1, 1, 1, 1, 1, 1]>, <22, 21, 22, 1, 0, 0, 0, [1, 1, 1, 1, 1, 1, 1, 1]>, <23, 22, 23, 1, 0, 0, 0, [1, 1, 1, 1, 1, 1, 1, 1]>, <24, 23, 24, 1, 0, 0, 0, [1, 1, 1, 1, 1, 1, 1, 1]>, <25, 24, 25, 1, 0, 0, 0, [1, 1, 1, 1, 1, 1, 1, 1]>, <26, 25, 26, 1, 0, 0, 0, [1, 1, 1, 1, 1, 1, 1, 1]>, <27, 26, 27, 1, 0, 0, 0, [1, 1, 1, 1, 1, 1, 1, 1]>, <28, 27, 28, 1, 0, 0, 0, [1, 1, 1, 1, 1, 1, 1, 1]>, <29, 28, 29, 1, 0, 0, 0, [1, 1, 1, 1, 1, 1, 1, 1]>, <30, 29, 30, 1, 0, 0, 0, [1, 1, 1, 1, 1, 1, 1, 1]>, <31, 30, 31, 1, 0, 0, 0, [1, 1, 1, 1, 1, 1, 1, 1]>, <32, 31, 32, 1, 0, 0, 0, [1, 1, 1, 1, 1, 1, 1, 1]>, <33, 32, 33, 1, 0, 0, 0, [1, 1, 1, 1, 1, 1, 1, 1]>, <34, 33, 34, 1, 0, 0, 0, [1, 1, 1, 1, 1, 1, 1, 1]>, <35, 34, 35, 1, 0, 0, 0, [1, 1, 1, 1, 1, 1, 1, 1]>, <36, 0, 17, 17, 1, 0, 1, [0, 0, 0, 1, 1, 0, 0, 0]>, <37, 1, 18, 17, 1, 0, 1, [0, 0, 0, 1, 1, 0, 0, 0]>, <38, 2, 19, 17, 1, 0, 1, [0, 0, 0, 1, 1, 0, 0, 0]>, <39, 3, 20, 17, 1, 0, 1, [0, 0, 0, 1, 1, 0, 0, 0]>, <40, 4, 21, 17, 1, 0, 1, [0, 0, 0, 1, 1, 0, 0, 0]>, <41, 5, 22, 17, 1, 0, 1, [0, 0, 0, 1, 1, 0, 0, 0]>, <42, 6, 23, 17, 1, 0, 1, [0, 0, 0, 1, 1, 0, 0, 0]>, <43, 9, 26, 17, 1, 0, 1, [0, 0, 0, 1, 1, 0, 0, 0]>, <44, 10, 27, 17, 1, 0, 1, [0, 0, 0, 1, 1, 0, 0, 0]>, <45, 11, 28, 17, 1, 0, 1, [0, 0, 0, 1, 1, 0, 0, 0]>, <46, 12, 29, 17, 1, 0, 1, [0, 0, 0, 1, 1, 0, 0, 0]>, <47, 13, 30, 17, 1, 0, 1, [0, 0, 0, 1, 1, 0, 0, 0]>, <48, 14, 31, 17, 1, 0, 1, [0, 0, 0, 1, 1, 0, 0, 0]>, <49, 15, 32, 17, 1, 0, 1, [0, 0, 0, 1, 1, 0, 0, 0]>, <50, 16, 33, 17, 1, 0, 1, [0, 0, 0, 1, 1, 0, 0, 0]>, <51, 17, 34, 17, 1, 0, 1, [0, 0, 0, 1, 1, 0, 0, 0]>, <52, 18, 35, 17, 1, 0, 1, [0, 0, 0, 1, 1, 0, 0, 0]>, <53, 0, 17, 17, 2, 0, 0, [0, 0, 0, 0, 1, 1, 0, 0]>, <54, 1, 18, 17, 2, 0, 0, [0, 0, 0, 0, 1, 1, 0, 0]>, <55, 2, 19, 17, 2, 0, 0, [0, 0, 0, 0, 1, 1, 0, 0]>, <56, 3, 20, 17, 2, 0, 0, [0, 0, 0, 0, 1, 1, 0, 0]>, <57, 4, 21, 17, 2, 0, 0, [0, 0, 0, 0, 1, 1, 0, 0]>, <58, 5, 22, 17, 2, 0, 0, [0, 0, 0, 0, 1, 1, 0, 0]>, <59, 6, 23, 17, 2, 0, 0, [0, 0, 0, 0, 1, 1, 0, 0]>, <60, 9, 26, 17, 2, 0, 0, [0, 0, 0, 0, 1, 1, 0, 0]>, <61, 10, 27, 17, 2, 0, 0, [0, 0, 0, 0, 1, 1, 0, 0]>, <62, 11, 28, 17, 2, 0, 0, [0, 0, 0, 0, 1, 1, 0, 0]>, <63, 12, 29, 17, 2, 0, 0, [0, 0, 0, 0, 1, 1, 0, 0]>, <64, 13, 30, 17, 2, 0, 0, [0, 0, 0, 0, 1, 1, 0, 0]>, <65, 14, 31, 17, 2, 0, 0, [0, 0, 0, 0, 1, 1, 0, 0]>, <66, 15, 32, 17, 2, 0, 0, [0, 0, 0, 0, 1, 1, 0, 0]>, <67, 16, 33, 17, 2, 0, 0, [0, 0, 0, 0, 1, 1, 0, 0]>, <68, 17, 34, 17, 2, 0, 0, [0, 0, 0, 0, 1, 1, 0, 0]>, <69, 18, 35, 17, 2, 0, 0, [0, 0, 0, 0, 1, 1, 0, 0]>, <70, 0, 18, 18, 3, 0, 0, [1, 1, 0, 0, 0, 0, 0, 0]>, <71, 1, 19, 18, 3, 0, 0, [1, 1, 0, 0, 0, 0, 0, 0]>, <72, 2, 20, 18, 3, 0, 0, [1, 1, 0, 0, 0, 0, 0, 0]>, <73, 3, 21, 18, 3, 0, 0, [1, 1, 0, 0, 0, 0, 0, 0]>, <74, 4, 22, 18, 3, 0, 0, [1, 1, 0, 0, 0, 0, 0, 0]>, <75, 5, 23, 18, 3, 0, 0, [1, 1, 0, 0, 0, 0, 0, 0]>, <76, 6, 24, 18, 3, 0, 0, [1, 1, 0, 0, 0, 0, 0, 0]>, <77, 8, 26, 18, 3, 0, 0, [1, 1, 0, 0, 0, 0, 0, 0]>, <78, 9, 27, 18, 3, 0, 0, [1, 1, 0, 0, 0, 0, 0, 0]>, <79, 10, 28, 18, 3, 0, 0, [1, 1, 0, 0, 0, 0, 0, 0]>, <80, 11, 29, 18, 3, 0, 0, [1, 1, 0, 0, 0, 0, 0, 0]>, <81, 12, 30, 18, 3, 0, 0, [1, 1, 0, 0, 0, 0, 0, 0]>, <82, 13, 31, 18, 3, 0, 0, [1, 1, 0, 0, 0, 0, 0, 0]>, <83, 14, 32, 18, 3, 0, 0, [1, 1, 0, 0, 0, 0, 0, 0]>, <84, 15, 33, 18, 3, 0, 0, [1, 1, 0, 0, 0, 0, 0, 0]>, <85, 16, 34, 18, 3, 0, 0, [1, 1, 0, 0, 0, 0, 0, 0]>, <86, 17, 35, 18, 3, 0, 0, [1, 1, 0, 0, 0, 0, 0, 0]>, <87, 0, 19, 19, 4, 0, 1, [0, 1, 1, 0, 0, 0, 0, 0]>, <88, 1, 20, 19, 4, 0, 1, [0, 1, 1, 0, 0, 0, 0, 0]>, <89, 2, 21, 19, 4, 0, 1, [0, 1, 1, 0, 0, 0, 0, 0]>, <90, 3, 22, 19, 4, 0, 1, [0, 1, 1, 0, 0, 0, 0, 0]>, <91, 4, 23, 19, 4, 0, 1, [0, 1, 1, 0, 0, 0, 0, 0]>, <92, 5, 24, 19, 4, 0, 1, [0, 1, 1, 0, 0, 0, 0, 0]>, <93, 6, 25, 19, 4, 0, 1, [0, 1, 1, 0, 0, 0, 0, 0]>, <94, 7, 26, 19, 4, 0, 1, [0, 1, 1, 0, 0, 0, 0, 0]>, <95, 8, 27, 19, 4, 0, 1, [0, 1, 1, 0, 0, 0, 0, 0]>, <96, 9, 28, 19, 4, 0, 1, [0, 1, 1, 0, 0, 0, 0, 0]>, <97, 10, 29, 19, 4, 0, 1, [0, 1, 1, 0, 0, 0, 0, 0]>, <98, 11, 30, 19, 4, 0, 1, [0, 1, 1, 0, 0, 0, 0, 0]>, <99, 12, 31, 19, 4, 0, 1, [0, 1, 1, 0, 0, 0, 0, 0]>, <100, 13, 32, 19, 4, 0, 1, [0, 1, 1, 0, 0, 0, 0, 0]>, <101, 14, 33, 19, 4, 0, 1, [0, 1, 1, 0, 0, 0, 0, 0]>, <102, 15, 34, 19, 4, 0, 1, [0, 1, 1, 0, 0, 0, 0, 0]>, <103, 16, 35, 19, 4, 0, 1, [0, 1, 1, 0, 0, 0, 0, 0]>, <104, 0, 18, 18, 5, 0, 0, [0, 0, 0, 0, 0, 0, 1, 1]>, <105, 1, 19, 18, 5, 0, 0, [0, 0, 0, 0, 0, 0, 1, 1]>, <106, 2, 20, 18, 5, 0, 0, [0, 0, 0, 0, 0, 0, 1, 1]>, <107, 3, 21, 18, 5, 0, 0, [0, 0, 0, 0, 0, 0, 1, 1]>, <108, 4, 22, 18, 5, 0, 0, [0, 0, 0, 0, 0, 0, 1, 1]>, <109, 5, 23, 18, 5, 0, 0, [0, 0, 0, 0, 0, 0, 1, 1]>, <110, 6, 24, 18, 5, 0, 0, [0, 0, 0, 0, 0, 0, 1, 1]>, <111, 8, 26, 18, 5, 0, 0, [0, 0, 0, 0, 0, 0, 1, 1]>, <112, 9, 27, 18, 5, 0, 0, [0, 0, 0, 0, 0, 0, 1, 1]>, <113, 10, 28, 18, 5, 0, 0, [0, 0, 0, 0, 0, 0, 1, 1]>, <114, 11, 29, 18, 5, 0, 0, [0, 0, 0, 0, 0, 0, 1, 1]>, <115, 12, 30, 18, 5, 0, 0, [0, 0, 0, 0, 0, 0, 1, 1]>, <116, 13, 31, 18, 5, 0, 0, [0, 0, 0, 0, 0, 0, 1, 1]>, <117, 14, 32, 18, 5, 0, 0, [0, 0, 0, 0, 0, 0, 1, 1]>, <118, 15, 33, 18, 5, 0, 0, [0, 0, 0, 0, 0, 0, 1, 1]>, <119, 16, 34, 18, 5, 0, 0, [0, 0, 0, 0, 0, 0, 1, 1]>, <120, 17, 35, 18, 5, 0, 0, [0, 0, 0, 0, 0, 0, 1, 1]>, <121, 0, 20, 20, 6, 1, 0, [1, 1, 0, 0, 0, 0, 0, 0]>, <122, 1, 21, 20, 6, 1, 0, [1, 1, 0, 0, 0, 0, 0, 0]>, <123, 2, 22, 20, 6, 1, 0, [1, 1, 0, 0, 0, 0, 0, 0]>, <124, 3, 23, 20, 6, 1, 0, [1, 1, 0, 0, 0, 0, 0, 0]>, <125, 4, 24, 20, 6, 1, 0, [1, 1, 0, 0, 0, 0, 0, 0]>, <126, 5, 25, 20, 6, 1, 0, [1, 1, 0, 0, 0, 0, 0, 0]>, <127, 6, 26, 20, 6, 1, 0, [1, 1, 0, 0, 0, 0, 0, 0]>, <128, 7, 27, 20, 6, 1, 0, [1, 1, 0, 0, 0, 0, 0, 0]>, <129, 8, 28, 20, 6, 1, 0, [1, 1, 0, 0, 0, 0, 0, 0]>, <130, 9, 29, 20, 6, 1, 0, [1, 1, 0, 0, 0, 0, 0, 0]>, <131, 10, 30, 20, 6, 1, 0, [1, 1, 0, 0, 0, 0, 0, 0]>, <132, 11, 31, 20, 6, 1, 0, [1, 1, 0, 0, 0, 0, 0, 0]>, <133, 12, 32, 20, 6, 1, 0, [1, 1, 0, 0, 0, 0, 0, 0]>, <134, 13, 33, 20, 6, 1, 0, [1, 1, 0, 0, 0, 0, 0, 0]>, <135, 14, 34, 20, 6, 1, 0, [1, 1, 0, 0, 0, 0, 0, 0]>, <136, 15, 35, 20, 6, 1, 0, [1, 1, 0, 0, 0, 0, 0, 0]>, <137, 0, 18, 18, 7, 0, 0, [0, 1, 1, 0, 0, 0, 0, 0]>, <138, 1, 19, 18, 7, 0, 0, [0, 1, 1, 0, 0, 0, 0, 0]>, <139, 2, 20, 18, 7, 0, 0, [0, 1, 1, 0, 0, 0, 0, 0]>, <140, 3, 21, 18, 7, 0, 0, [0, 1, 1, 0, 0, 0, 0, 0]>, <141, 4, 22, 18, 7, 0, 0, [0, 1, 1, 0, 0, 0, 0, 0]>, <142, 5, 23, 18, 7, 0, 0, [0, 1, 1, 0, 0, 0, 0, 0]>, <143, 6, 24, 18, 7, 0, 0, [0, 1, 1, 0, 0, 0, 0, 0]>, <144, 8, 26, 18, 7, 0, 0, [0, 1, 1, 0, 0, 0, 0, 0]>, <145, 9, 27, 18, 7, 0, 0, [0, 1, 1, 0, 0, 0, 0, 0]>, <146, 10, 28, 18, 7, 0, 0, [0, 1, 1, 0, 0, 0, 0, 0]>, <147, 11, 29, 18, 7, 0, 0, [0, 1, 1, 0, 0, 0, 0, 0]>, <148, 12, 30, 18, 7, 0, 0, [0, 1, 1, 0, 0, 0, 0, 0]>, <149, 13, 31, 18, 7, 0, 0, [0, 1, 1, 0, 0, 0, 0, 0]>, <150, 14, 32, 18, 7, 0, 0, [0, 1, 1, 0, 0, 0, 0, 0]>, <151, 15, 33, 18, 7, 0, 0, [0, 1, 1, 0, 0, 0, 0, 0]>, <152, 16, 34, 18, 7, 0, 0, [0, 1, 1, 0, 0, 0, 0, 0]>, <153, 17, 35, 18, 7, 0, 0, [0, 1, 1, 0, 0, 0, 0, 0]>, <154, 0, 20, 20, 8, 1, 0, [0, 0, 0, 1, 1, 0, 0, 0]>, <155, 1, 21, 20, 8, 1, 0, [0, 0, 0, 1, 1, 0, 0, 0]>, <156, 2, 22, 20, 8, 1, 0, [0, 0, 0, 1, 1, 0, 0, 0]>, <157, 3, 23, 20, 8, 1, 0, [0, 0, 0, 1, 1, 0, 0, 0]>, <158, 4, 24, 20, 8, 1, 0, [0, 0, 0, 1, 1, 0, 0, 0]>, <159, 5, 25, 20, 8, 1, 0, [0, 0, 0, 1, 1, 0, 0, 0]>, <160, 6, 26, 20, 8, 1, 0, [0, 0, 0, 1, 1, 0, 0, 0]>, <161, 7, 27, 20, 8, 1, 0, [0, 0, 0, 1, 1, 0, 0, 0]>, <162, 8, 28, 20, 8, 1, 0, [0, 0, 0, 1, 1, 0, 0, 0]>, <163, 9, 29, 20, 8, 1, 0, [0, 0, 0, 1, 1, 0, 0, 0]>, <164, 10, 30, 20, 8, 1, 0, [0, 0, 0, 1, 1, 0, 0, 0]>, <165, 11, 31, 20, 8, 1, 0, [0, 0, 0, 1, 1, 0, 0, 0]>, <166, 12, 32, 20, 8, 1, 0, [0, 0, 0, 1, 1, 0, 0, 0]>, <167, 13, 33, 20, 8, 1, 0, [0, 0, 0, 1, 1, 0, 0, 0]>, <168, 14, 34, 20, 8, 1, 0, [0, 0, 0, 1, 1, 0, 0, 0]>, <169, 15, 35, 20, 8, 1, 0, [0, 0, 0, 1, 1, 0, 0, 0]>, <170, 0, 22, 22, 9, 0, 0, [0, 0, 0, 0, 0, 0, 1, 1]>, <171, 1, 23, 22, 9, 0, 0, [0, 0, 0, 0, 0, 0, 1, 1]>, <172, 2, 24, 22, 9, 0, 0, [0, 0, 0, 0, 0, 0, 1, 1]>, <173, 3, 25, 22, 9, 0, 0, [0, 0, 0, 0, 0, 0, 1, 1]>, <174, 4, 26, 22, 9, 0, 0, [0, 0, 0, 0, 0, 0, 1, 1]>, <175, 5, 27, 22, 9, 0, 0, [0, 0, 0, 0, 0, 0, 1, 1]>, <176, 6, 28, 22, 9, 0, 0, [0, 0, 0, 0, 0, 0, 1, 1]>, <177, 7, 29, 22, 9, 0, 0, [0, 0, 0, 0, 0, 0, 1, 1]>, <178, 8, 30, 22, 9, 0, 0, [0, 0, 0, 0, 0, 0, 1, 1]>, <179, 9, 31, 22, 9, 0, 0, [0, 0, 0, 0, 0, 0, 1, 1]>, <180, 10, 32, 22, 9, 0, 0, [0, 0, 0, 0, 0, 0, 1, 1]>, <181, 11, 33, 22, 9, 0, 0, [0, 0, 0, 0, 0, 0, 1, 1]>, <182, 12, 34, 22, 9, 0, 0, [0, 0, 0, 0, 0, 0, 1, 1]>, <183, 13, 35, 22, 9, 0, 0, [0, 0, 0, 0, 0, 0, 1, 1]>, <184, 0, 19, 19, 10, 0, 0, [0, 0, 0, 0, 1, 1, 0, 0]>, <185, 1, 20, 19, 10, 0, 0, [0, 0, 0, 0, 1, 1, 0, 0]>, <186, 2, 21, 19, 10, 0, 0, [0, 0, 0, 0, 1, 1, 0, 0]>, <187, 3, 22, 19, 10, 0, 0, [0, 0, 0, 0, 1, 1, 0, 0]>, <188, 4, 23, 19, 10, 0, 0, [0, 0, 0, 0, 1, 1, 0, 0]>, <189, 5, 24, 19, 10, 0, 0, [0, 0, 0, 0, 1, 1, 0, 0]>, <190, 6, 25, 19, 10, 0, 0, [0, 0, 0, 0, 1, 1, 0, 0]>, <191, 7, 26, 19, 10, 0, 0, [0, 0, 0, 0, 1, 1, 0, 0]>, <192, 8, 27, 19, 10, 0, 0, [0, 0, 0, 0, 1, 1, 0, 0]>, <193, 9, 28, 19, 10, 0, 0, [0, 0, 0, 0, 1, 1, 0, 0]>, <194, 10, 29, 19, 10, 0, 0, [0, 0, 0, 0, 1, 1, 0, 0]>, <195, 11, 30, 19, 10, 0, 0, [0, 0, 0, 0, 1, 1, 0, 0]>, <196, 12, 31, 19, 10, 0, 0, [0, 0, 0, 0, 1, 1, 0, 0]>, <197, 13, 32, 19, 10, 0, 0, [0, 0, 0, 0, 1, 1, 0, 0]>, <198, 14, 33, 19, 10, 0, 0, [0, 0, 0, 0, 1, 1, 0, 0]>, <199, 15, 34, 19, 10, 0, 0, [0, 0, 0, 0, 1, 1, 0, 0]>, <200, 16, 35, 19, 10, 0, 0, [0, 0, 0, 0, 1, 1, 0, 0]>, <201, 0, 19, 19, 11, 0, 0, [0, 0, 0, 0, 0, 0, 1, 1]>, <202, 1, 20, 19, 11, 0, 0, [0, 0, 0, 0, 0, 0, 1, 1]>, <203, 2, 21, 19, 11, 0, 0, [0, 0, 0, 0, 0, 0, 1, 1]>, <204, 3, 22, 19, 11, 0, 0, [0, 0, 0, 0, 0, 0, 1, 1]>, <205, 4, 23, 19, 11, 0, 0, [0, 0, 0, 0, 0, 0, 1, 1]>, <206, 5, 24, 19, 11, 0, 0, [0, 0, 0, 0, 0, 0, 1, 1]>, <207, 6, 25, 19, 11, 0, 0, [0, 0, 0, 0, 0, 0, 1, 1]>, <208, 7, 26, 19, 11, 0, 0, [0, 0, 0, 0, 0, 0, 1, 1]>, <209, 8, 27, 19, 11, 0, 0, [0, 0, 0, 0, 0, 0, 1, 1]>, <210, 9, 28, 19, 11, 0, 0, [0, 0, 0, 0, 0, 0, 1, 1]>, <211, 10, 29, 19, 11, 0, 0, [0, 0, 0, 0, 0, 0, 1, 1]>, <212, 11, 30, 19, 11, 0, 0, [0, 0, 0, 0, 0, 0, 1, 1]>, <213, 12, 31, 19, 11, 0, 0, [0, 0, 0, 0, 0, 0, 1, 1]>, <214, 13, 32, 19, 11, 0, 0, [0, 0, 0, 0, 0, 0, 1, 1]>, <215, 14, 33, 19, 11, 0, 0, [0, 0, 0, 0, 0, 0, 1, 1]>, <216, 15, 34, 19, 11, 0, 0, [0, 0, 0, 0, 0, 0, 1, 1]>, <217, 16, 35, 19, 11, 0, 0, [0, 0, 0, 0, 0, 0, 1, 1]>, <218, 0, 21, 21, 12, 0, 1, [0, 0, 0, 0, 1, 1, 0, 0]>, <219, 1, 22, 21, 12, 0, 1, [0, 0, 0, 0, 1, 1, 0, 0]>, <220, 2, 23, 21, 12, 0, 1, [0, 0, 0, 0, 1, 1, 0, 0]>, <221, 3, 24, 21, 12, 0, 1, [0, 0, 0, 0, 1, 1, 0, 0]>, <222, 4, 25, 21, 12, 0, 1, [0, 0, 0, 0, 1, 1, 0, 0]>, <223, 5, 26, 21, 12, 0, 1, [0, 0, 0, 0, 1, 1, 0, 0]>, <224, 6, 27, 21, 12, 0, 1, [0, 0, 0, 0, 1, 1, 0, 0]>, <225, 7, 28, 21, 12, 0, 1, [0, 0, 0, 0, 1, 1, 0, 0]>, <226, 8, 29, 21, 12, 0, 1, [0, 0, 0, 0, 1, 1, 0, 0]>, <227, 9, 30, 21, 12, 0, 1, [0, 0, 0, 0, 1, 1, 0, 0]>, <228, 10, 31, 21, 12, 0, 1, [0, 0, 0, 0, 1, 1, 0, 0]>, <229, 11, 32, 21, 12, 0, 1, [0, 0, 0, 0, 1, 1, 0, 0]>, <230, 12, 33, 21, 12, 0, 1, [0, 0, 0, 0, 1, 1, 0, 0]>, <231, 13, 34, 21, 12, 0, 1, [0, 0, 0, 0, 1, 1, 0, 0]>, <232, 14, 35, 21, 12, 0, 1, [0, 0, 0, 0, 1, 1, 0, 0]>, <233, 0, 18, 18, 13, 0, 1, [0, 1, 1, 0, 0, 0, 0, 0]>, <234, 1, 19, 18, 13, 0, 1, [0, 1, 1, 0, 0, 0, 0, 0]>, <235, 2, 20, 18, 13, 0, 1, [0, 1, 1, 0, 0, 0, 0, 0]>, <236, 3, 21, 18, 13, 0, 1, [0, 1, 1, 0, 0, 0, 0, 0]>, <237, 4, 22, 18, 13, 0, 1, [0, 1, 1, 0, 0, 0, 0, 0]>, <238, 5, 23, 18, 13, 0, 1, [0, 1, 1, 0, 0, 0, 0, 0]>, <239, 6, 24, 18, 13, 0, 1, [0, 1, 1, 0, 0, 0, 0, 0]>, <240, 8, 26, 18, 13, 0, 1, [0, 1, 1, 0, 0, 0, 0, 0]>, <241, 9, 27, 18, 13, 0, 1, [0, 1, 1, 0, 0, 0, 0, 0]>, <242, 10, 28, 18, 13, 0, 1, [0, 1, 1, 0, 0, 0, 0, 0]>, <243, 11, 29, 18, 13, 0, 1, [0, 1, 1, 0, 0, 0, 0, 0]>, <244, 12, 30, 18, 13, 0, 1, [0, 1, 1, 0, 0, 0, 0, 0]>, <245, 13, 31, 18, 13, 0, 1, [0, 1, 1, 0, 0, 0, 0, 0]>, <246, 14, 32, 18, 13, 0, 1, [0, 1, 1, 0, 0, 0, 0, 0]>, <247, 15, 33, 18, 13, 0, 1, [0, 1, 1, 0, 0, 0, 0, 0]>, <248, 16, 34, 18, 13, 0, 1, [0, 1, 1, 0, 0, 0, 0, 0]>, <249, 17, 35, 18, 13, 0, 1, [0, 1, 1, 0, 0, 0, 0, 0]>, <250, 0, 22, 22, 14, 0, 0, [1, 0, 0, 0, 0, 0, 0, 1]>, <251, 1, 23, 22, 14, 0, 0, [1, 0, 0, 0, 0, 0, 0, 1]>, <252, 2, 24, 22, 14, 0, 0, [1, 0, 0, 0, 0, 0, 0, 1]>, <253, 3, 25, 22, 14, 0, 0, [1, 0, 0, 0, 0, 0, 0, 1]>, <254, 4, 26, 22, 14, 0, 0, [1, 0, 0, 0, 0, 0, 0, 1]>, <255, 5, 27, 22, 14, 0, 0, [1, 0, 0, 0, 0, 0, 0, 1]>, <256, 6, 28, 22, 14, 0, 0, [1, 0, 0, 0, 0, 0, 0, 1]>, <257, 7, 29, 22, 14, 0, 0, [1, 0, 0, 0, 0, 0, 0, 1]>, <258, 8, 30, 22, 14, 0, 0, [1, 0, 0, 0, 0, 0, 0, 1]>, <259, 9, 31, 22, 14, 0, 0, [1, 0, 0, 0, 0, 0, 0, 1]>, <260, 10, 32, 22, 14, 0, 0, [1, 0, 0, 0, 0, 0, 0, 1]>, <261, 11, 33, 22, 14, 0, 0, [1, 0, 0, 0, 0, 0, 0, 1]>, <262, 12, 34, 22, 14, 0, 0, [1, 0, 0, 0, 0, 0, 0, 1]>, <263, 13, 35, 22, 14, 0, 0, [1, 0, 0, 0, 0, 0, 0, 1]>, <264, 0, 21, 21, 15, 0, 0, [0, 0, 1, 1, 0, 0, 0, 0]>, <265, 1, 22, 21, 15, 0, 0, [0, 0, 1, 1, 0, 0, 0, 0]>, <266, 2, 23, 21, 15, 0, 0, [0, 0, 1, 1, 0, 0, 0, 0]>, <267, 3, 24, 21, 15, 0, 0, [0, 0, 1, 1, 0, 0, 0, 0]>, <268, 4, 25, 21, 15, 0, 0, [0, 0, 1, 1, 0, 0, 0, 0]>, <269, 5, 26, 21, 15, 0, 0, [0, 0, 1, 1, 0, 0, 0, 0]>, <270, 6, 27, 21, 15, 0, 0, [0, 0, 1, 1, 0, 0, 0, 0]>, <271, 7, 28, 21, 15, 0, 0, [0, 0, 1, 1, 0, 0, 0, 0]>, <272, 8, 29, 21, 15, 0, 0, [0, 0, 1, 1, 0, 0, 0, 0]>, <273, 9, 30, 21, 15, 0, 0, [0, 0, 1, 1, 0, 0, 0, 0]>, <274, 10, 31, 21, 15, 0, 0, [0, 0, 1, 1, 0, 0, 0, 0]>, <275, 11, 32, 21, 15, 0, 0, [0, 0, 1, 1, 0, 0, 0, 0]>, <276, 12, 33, 21, 15, 0, 0, [0, 0, 1, 1, 0, 0, 0, 0]>, <277, 13, 34, 21, 15, 0, 0, [0, 0, 1, 1, 0, 0, 0, 0]>, <278, 14, 35, 21, 15, 0, 0, [0, 0, 1, 1, 0, 0, 0, 0]>, <279, 0, 18, 18, 16, 0, 1, [0, 0, 0, 0, 1, 1, 0, 0]>, <280, 1, 19, 18, 16, 0, 1, [0, 0, 0, 0, 1, 1, 0, 0]>, <281, 2, 20, 18, 16, 0, 1, [0, 0, 0, 0, 1, 1, 0, 0]>, <282, 3, 21, 18, 16, 0, 1, [0, 0, 0, 0, 1, 1, 0, 0]>, <283, 4, 22, 18, 16, 0, 1, [0, 0, 0, 0, 1, 1, 0, 0]>, <284, 5, 23, 18, 16, 0, 1, [0, 0, 0, 0, 1, 1, 0, 0]>, <285, 6, 24, 18, 16, 0, 1, [0, 0, 0, 0, 1, 1, 0, 0]>, <286, 8, 26, 18, 16, 0, 1, [0, 0, 0, 0, 1, 1, 0, 0]>, <287, 9, 27, 18, 16, 0, 1, [0, 0, 0, 0, 1, 1, 0, 0]>, <288, 10, 28, 18, 16, 0, 1, [0, 0, 0, 0, 1, 1, 0, 0]>, <289, 11, 29, 18, 16, 0, 1, [0, 0, 0, 0, 1, 1, 0, 0]>, <290, 12, 30, 18, 16, 0, 1, [0, 0, 0, 0, 1, 1, 0, 0]>, <291, 13, 31, 18, 16, 0, 1, [0, 0, 0, 0, 1, 1, 0, 0]>, <292, 14, 32, 18, 16, 0, 1, [0, 0, 0, 0, 1, 1, 0, 0]>, <293, 15, 33, 18, 16, 0, 1, [0, 0, 0, 0, 1, 1, 0, 0]>, <294, 16, 34, 18, 16, 0, 1, [0, 0, 0, 0, 1, 1, 0, 0]>, <295, 17, 35, 18, 16, 0, 1, [0, 0, 0, 0, 1, 1, 0, 0]>, <296, 0, 22, 22, 17, 0, 0, [0, 1, 1, 0, 0, 0, 0, 0]>, <297, 1, 23, 22, 17, 0, 0, [0, 1, 1, 0, 0, 0, 0, 0]>, <298, 2, 24, 22, 17, 0, 0, [0, 1, 1, 0, 0, 0, 0, 0]>, <299, 3, 25, 22, 17, 0, 0, [0, 1, 1, 0, 0, 0, 0, 0]>, <300, 4, 26, 22, 17, 0, 0, [0, 1, 1, 0, 0, 0, 0, 0]>, <301, 5, 27, 22, 17, 0, 0, [0, 1, 1, 0, 0, 0, 0, 0]>, <302, 6, 28, 22, 17, 0, 0, [0, 1, 1, 0, 0, 0, 0, 0]>, <303, 7, 29, 22, 17, 0, 0, [0, 1, 1, 0, 0, 0, 0, 0]>, <304, 8, 30, 22, 17, 0, 0, [0, 1, 1, 0, 0, 0, 0, 0]>, <305, 9, 31, 22, 17, 0, 0, [0, 1, 1, 0, 0, 0, 0, 0]>, <306, 10, 32, 22, 17, 0, 0, [0, 1, 1, 0, 0, 0, 0, 0]>, <307, 11, 33, 22, 17, 0, 0, [0, 1, 1, 0, 0, 0, 0, 0]>, <308, 12, 34, 22, 17, 0, 0, [0, 1, 1, 0, 0, 0, 0, 0]>, <309, 13, 35, 22, 17, 0, 0, [0, 1, 1, 0, 0, 0, 0, 0]>, <310, 0, 17, 17, 18, 0, 1, [0, 0, 1, 1, 0, 0, 0, 0]>, <311, 1, 18, 17, 18, 0, 1, [0, 0, 1, 1, 0, 0, 0, 0]>, <312, 2, 19, 17, 18, 0, 1, [0, 0, 1, 1, 0, 0, 0, 0]>, <313, 3, 20, 17, 18, 0, 1, [0, 0, 1, 1, 0, 0, 0, 0]>, <314, 4, 21, 17, 18, 0, 1, [0, 0, 1, 1, 0, 0, 0, 0]>, <315, 5, 22, 17, 18, 0, 1, [0, 0, 1, 1, 0, 0, 0, 0]>, <316, 6, 23, 17, 18, 0, 1, [0, 0, 1, 1, 0, 0, 0, 0]>, <317, 9, 26, 17, 18, 0, 1, [0, 0, 1, 1, 0, 0, 0, 0]>, <318, 10, 27, 17, 18, 0, 1, [0, 0, 1, 1, 0, 0, 0, 0]>, <319, 11, 28, 17, 18, 0, 1, [0, 0, 1, 1, 0, 0, 0, 0]>, <320, 12, 29, 17, 18, 0, 1, [0, 0, 1, 1, 0, 0, 0, 0]>, <321, 13, 30, 17, 18, 0, 1, [0, 0, 1, 1, 0, 0, 0, 0]>, <322, 14, 31, 17, 18, 0, 1, [0, 0, 1, 1, 0, 0, 0, 0]>, <323, 15, 32, 17, 18, 0, 1, [0, 0, 1, 1, 0, 0, 0, 0]>, <324, 16, 33, 17, 18, 0, 1, [0, 0, 1, 1, 0, 0, 0, 0]>, <325, 17, 34, 17, 18, 0, 1, [0, 0, 1, 1, 0, 0, 0, 0]>, <326, 18, 35, 17, 18, 0, 1, [0, 0, 1, 1, 0, 0, 0, 0]>, <327, 0, 19, 19, 19, 0, 1, [0, 0, 0, 0, 0, 0, 1, 1]>, <328, 1, 20, 19, 19, 0, 1, [0, 0, 0, 0, 0, 0, 1, 1]>, <329, 2, 21, 19, 19, 0, 1, [0, 0, 0, 0, 0, 0, 1, 1]>, <330, 3, 22, 19, 19, 0, 1, [0, 0, 0, 0, 0, 0, 1, 1]>, <331, 4, 23, 19, 19, 0, 1, [0, 0, 0, 0, 0, 0, 1, 1]>, <332, 5, 24, 19, 19, 0, 1, [0, 0, 0, 0, 0, 0, 1, 1]>, <333, 6, 25, 19, 19, 0, 1, [0, 0, 0, 0, 0, 0, 1, 1]>, <334, 7, 26, 19, 19, 0, 1, [0, 0, 0, 0, 0, 0, 1, 1]>, <335, 8, 27, 19, 19, 0, 1, [0, 0, 0, 0, 0, 0, 1, 1]>, <336, 9, 28, 19, 19, 0, 1, [0, 0, 0, 0, 0, 0, 1, 1]>, <337, 10, 29, 19, 19, 0, 1, [0, 0, 0, 0, 0, 0, 1, 1]>, <338, 11, 30, 19, 19, 0, 1, [0, 0, 0, 0, 0, 0, 1, 1]>, <339, 12, 31, 19, 19, 0, 1, [0, 0, 0, 0, 0, 0, 1, 1]>, <340, 13, 32, 19, 19, 0, 1, [0, 0, 0, 0, 0, 0, 1, 1]>, <341, 14, 33, 19, 19, 0, 1, [0, 0, 0, 0, 0, 0, 1, 1]>, <342, 15, 34, 19, 19, 0, 1, [0, 0, 0, 0, 0, 0, 1, 1]>, <343, 16, 35, 19, 19, 0, 1, [0, 0, 0, 0, 0, 0, 1, 1]>, <344, 0, 22, 22, 20, 0, 1, [0, 0, 0, 0, 0, 1, 1, 0]>, <345, 1, 23, 22, 20, 0, 1, [0, 0, 0, 0, 0, 1, 1, 0]>, <346, 2, 24, 22, 20, 0, 1, [0, 0, 0, 0, 0, 1, 1, 0]>, <347, 3, 25, 22, 20, 0, 1, [0, 0, 0, 0, 0, 1, 1, 0]>, <348, 4, 26, 22, 20, 0, 1, [0, 0, 0, 0, 0, 1, 1, 0]>, <349, 5, 27, 22, 20, 0, 1, [0, 0, 0, 0, 0, 1, 1, 0]>, <350, 6, 28, 22, 20, 0, 1, [0, 0, 0, 0, 0, 1, 1, 0]>, <351, 7, 29, 22, 20, 0, 1, [0, 0, 0, 0, 0, 1, 1, 0]>, <352, 8, 30, 22, 20, 0, 1, [0, 0, 0, 0, 0, 1, 1, 0]>, <353, 9, 31, 22, 20, 0, 1, [0, 0, 0, 0, 0, 1, 1, 0]>, <354, 10, 32, 22, 20, 0, 1, [0, 0, 0, 0, 0, 1, 1, 0]>, <355, 11, 33, 22, 20, 0, 1, [0, 0, 0, 0, 0, 1, 1, 0]>, <356, 12, 34, 22, 20, 0, 1, [0, 0, 0, 0, 0, 1, 1, 0]>, <357, 13, 35, 22, 20, 0, 1, [0, 0, 0, 0, 0, 1, 1, 0]>, <358, 0, 17, 17, 21, 0, 0, [1, 1, 0, 0, 0, 0, 0, 0]>, <359, 1, 18, 17, 21, 0, 0, [1, 1, 0, 0, 0, 0, 0, 0]>, <360, 2, 19, 17, 21, 0, 0, [1, 1, 0, 0, 0, 0, 0, 0]>, <361, 3, 20, 17, 21, 0, 0, [1, 1, 0, 0, 0, 0, 0, 0]>, <362, 4, 21, 17, 21, 0, 0, [1, 1, 0, 0, 0, 0, 0, 0]>, <363, 5, 22, 17, 21, 0, 0, [1, 1, 0, 0, 0, 0, 0, 0]>, <364, 6, 23, 17, 21, 0, 0, [1, 1, 0, 0, 0, 0, 0, 0]>, <365, 9, 26, 17, 21, 0, 0, [1, 1, 0, 0, 0, 0, 0, 0]>, <366, 10, 27, 17, 21, 0, 0, [1, 1, 0, 0, 0, 0, 0, 0]>, <367, 11, 28, 17, 21, 0, 0, [1, 1, 0, 0, 0, 0, 0, 0]>, <368, 12, 29, 17, 21, 0, 0, [1, 1, 0, 0, 0, 0, 0, 0]>, <369, 13, 30, 17, 21, 0, 0, [1, 1, 0, 0, 0, 0, 0, 0]>, <370, 14, 31, 17, 21, 0, 0, [1, 1, 0, 0, 0, 0, 0, 0]>, <371, 15, 32, 17, 21, 0, 0, [1, 1, 0, 0, 0, 0, 0, 0]>, <372, 16, 33, 17, 21, 0, 0, [1, 1, 0, 0, 0, 0, 0, 0]>, <373, 17, 34, 17, 21, 0, 0, [1, 1, 0, 0, 0, 0, 0, 0]>, <374, 18, 35, 17, 21, 0, 0, [1, 1, 0, 0, 0, 0, 0, 0]>};
